(set-logic ALL)
(declare-const pattern_VAR String)
(declare-const text_VAR String)
(assert (not (> (str.len pattern_VAR) (str.len text_VAR))))
(assert (< 0 (str.len pattern_VAR)))
(assert (> (str.len pattern_VAR) 0))
(assert (> (str.len text_VAR) 0))
(assert (not (= 0 (- (str.len pattern_VAR) 1))))
(assert (< 1 (str.len pattern_VAR)))
(assert (> (str.len pattern_VAR) 1))
(assert (> (str.len text_VAR) 1))
(assert (not (= 1 (- (str.len pattern_VAR) 1))))
(assert (< 2 (str.len pattern_VAR)))
(assert (> (str.len pattern_VAR) 2))
(assert (> (str.len text_VAR) 2))
(assert (not (= 2 (- (str.len pattern_VAR) 1))))
(assert (< 3 (str.len pattern_VAR)))
(assert (> (str.len pattern_VAR) 3))
(assert (> (str.len text_VAR) 3))
(assert (not (= 3 (- (str.len pattern_VAR) 1))))
(assert (< 4 (str.len pattern_VAR)))
(assert (> (str.len pattern_VAR) 4))
(assert (> (str.len text_VAR) 4))
(assert (not (= 4 (- (str.len pattern_VAR) 1))))
(assert (< 5 (str.len pattern_VAR)))
(assert (> (str.len pattern_VAR) 5))
(assert (> (str.len text_VAR) 5))
(assert (not (= 5 (- (str.len pattern_VAR) 1))))
(assert (< 6 (str.len pattern_VAR)))
(assert (> (str.len pattern_VAR) 6))
(assert (> (str.len text_VAR) 6))
(assert (not (= 6 (- (str.len pattern_VAR) 1))))
(assert (< 7 (str.len pattern_VAR)))
(assert (> (str.len pattern_VAR) 7))
(assert (> (str.len text_VAR) 7))
(assert (not (= 7 (- (str.len pattern_VAR) 1))))
(assert (< 8 (str.len pattern_VAR)))
(assert (> (str.len pattern_VAR) 8))
(assert (> (str.len text_VAR) 8))
(assert (not (= 8 (- (str.len pattern_VAR) 1))))
(assert (< 9 (str.len pattern_VAR)))
(assert (> (str.len pattern_VAR) 9))
(assert (> (str.len text_VAR) 9))
(assert (not (= 9 (- (str.len pattern_VAR) 1))))
(assert (< 10 (str.len pattern_VAR)))
(assert (> (str.len pattern_VAR) 10))
(assert (> (str.len text_VAR) 10))
(assert (not (= 10 (- (str.len pattern_VAR) 1))))
(assert (< 11 (str.len pattern_VAR)))
(assert (> (str.len pattern_VAR) 11))
(assert (> (str.len text_VAR) 11))
(assert (not (= 11 (- (str.len pattern_VAR) 1))))
(assert (< 12 (str.len pattern_VAR)))
(assert (> (str.len pattern_VAR) 12))
(assert (> (str.len text_VAR) 12))
(assert (not (= 12 (- (str.len pattern_VAR) 1))))
(assert (< 13 (str.len pattern_VAR)))
(assert (> (str.len pattern_VAR) 13))
(assert (> (str.len text_VAR) 13))
(assert (not (= 13 (- (str.len pattern_VAR) 1))))
(assert (< 14 (str.len pattern_VAR)))
(assert (> (str.len pattern_VAR) 14))
(assert (> (str.len text_VAR) 14))
(assert (not (= 14 (- (str.len pattern_VAR) 1))))
(assert (< 15 (str.len pattern_VAR)))
(assert (> (str.len pattern_VAR) 15))
(assert (> (str.len text_VAR) 15))
(assert (not (= 15 (- (str.len pattern_VAR) 1))))
(assert (< 16 (str.len pattern_VAR)))
(assert (> (str.len pattern_VAR) 16))
(assert (> (str.len text_VAR) 16))
(assert (not (= 16 (- (str.len pattern_VAR) 1))))
(assert (< 17 (str.len pattern_VAR)))
(assert (> (str.len pattern_VAR) 17))
(assert (> (str.len text_VAR) 17))
(assert (not (= 17 (- (str.len pattern_VAR) 1))))
(assert (< 18 (str.len pattern_VAR)))
(assert (> (str.len pattern_VAR) 18))
(assert (> (str.len text_VAR) 18))
(assert (not (= 18 (- (str.len pattern_VAR) 1))))
(assert (< 19 (str.len pattern_VAR)))
(assert (> (str.len pattern_VAR) 19))
(assert (> (str.len text_VAR) 19))
(assert (not (= 19 (- (str.len pattern_VAR) 1))))
(assert (< 20 (str.len pattern_VAR)))
(assert (> (str.len pattern_VAR) 20))
(assert (> (str.len text_VAR) 20))
(assert (not (= 20 (- (str.len pattern_VAR) 1))))
(assert (< 21 (str.len pattern_VAR)))
(assert (> (str.len pattern_VAR) 21))
(assert (> (str.len text_VAR) 21))
(assert (not (= 21 (- (str.len pattern_VAR) 1))))
(assert (< 22 (str.len pattern_VAR)))
(assert (> (str.len pattern_VAR) 22))
(assert (> (str.len text_VAR) 22))
(assert (not (= 22 (- (str.len pattern_VAR) 1))))
(assert (< 23 (str.len pattern_VAR)))
(assert (> (str.len pattern_VAR) 23))
(assert (> (str.len text_VAR) 23))
(assert (not (= 23 (- (str.len pattern_VAR) 1))))
(assert (< 24 (str.len pattern_VAR)))
(assert (> (str.len pattern_VAR) 24))
(assert (> (str.len text_VAR) 24))
(assert (not (= 24 (- (str.len pattern_VAR) 1))))
(assert (< 25 (str.len pattern_VAR)))
(assert (> (str.len pattern_VAR) 25))
(assert (> (str.len text_VAR) 25))
(assert (not (= 25 (- (str.len pattern_VAR) 1))))
(assert (< 26 (str.len pattern_VAR)))
(assert (> (str.len pattern_VAR) 26))
(assert (> (str.len text_VAR) 26))
(assert (not (= 26 (- (str.len pattern_VAR) 1))))
(assert (< 27 (str.len pattern_VAR)))
(assert (> (str.len pattern_VAR) 27))
(assert (> (str.len text_VAR) 27))
(assert (not (= 27 (- (str.len pattern_VAR) 1))))
(assert (< 28 (str.len pattern_VAR)))
(assert (> (str.len pattern_VAR) 28))
(assert (> (str.len text_VAR) 28))
(assert (not (= 28 (- (str.len pattern_VAR) 1))))
(assert (< 29 (str.len pattern_VAR)))
(assert (> (str.len pattern_VAR) 29))
(assert (> (str.len text_VAR) 29))
(assert (not (= 29 (- (str.len pattern_VAR) 1))))
(assert (< 30 (str.len pattern_VAR)))
(assert (> (str.len pattern_VAR) 30))
(assert (> (str.len text_VAR) 30))
(assert (not (= 30 (- (str.len pattern_VAR) 1))))
(assert (< 31 (str.len pattern_VAR)))
(assert (> (str.len pattern_VAR) 31))
(assert (> (str.len text_VAR) 31))
(assert (not (= 31 (- (str.len pattern_VAR) 1))))
(assert (< 32 (str.len pattern_VAR)))
(assert (> (str.len pattern_VAR) 32))
(assert (> (str.len text_VAR) 32))
(assert (not (= 32 (- (str.len pattern_VAR) 1))))
(assert (< 33 (str.len pattern_VAR)))
(assert (> (str.len pattern_VAR) 33))
(assert (> (str.len text_VAR) 33))
(assert (not (= 33 (- (str.len pattern_VAR) 1))))
(assert (< 34 (str.len pattern_VAR)))
(assert (> (str.len pattern_VAR) 34))
(assert (> (str.len text_VAR) 34))
(assert (not (= 34 (- (str.len pattern_VAR) 1))))
(assert (< 35 (str.len pattern_VAR)))
(assert (> (str.len pattern_VAR) 35))
(assert (> (str.len text_VAR) 35))
(assert (not (= 35 (- (str.len pattern_VAR) 1))))
(assert (< 36 (str.len pattern_VAR)))
(assert (> (str.len pattern_VAR) 36))
(assert (> (str.len text_VAR) 36))
(assert (not (= 36 (- (str.len pattern_VAR) 1))))
(assert (< 37 (str.len pattern_VAR)))
(assert (> (str.len pattern_VAR) 37))
(assert (> (str.len text_VAR) 37))
(assert (not (= 37 (- (str.len pattern_VAR) 1))))
(assert (< 38 (str.len pattern_VAR)))
(assert (> (str.len pattern_VAR) 38))
(assert (> (str.len text_VAR) 38))
(assert (not (= 38 (- (str.len pattern_VAR) 1))))
(assert (< 39 (str.len pattern_VAR)))
(assert (> (str.len pattern_VAR) 39))
(assert (> (str.len text_VAR) 39))
(assert (not (= 39 (- (str.len pattern_VAR) 1))))
(assert (< 40 (str.len pattern_VAR)))
(assert (> (str.len pattern_VAR) 40))
(assert (> (str.len text_VAR) 40))
(assert (not (= 40 (- (str.len pattern_VAR) 1))))
(assert (< 41 (str.len pattern_VAR)))
(assert (> (str.len pattern_VAR) 41))
(assert (> (str.len text_VAR) 41))
(assert (not (= 41 (- (str.len pattern_VAR) 1))))
(assert (< 42 (str.len pattern_VAR)))
(assert (> (str.len pattern_VAR) 42))
(assert (> (str.len text_VAR) 42))
(assert (not (= 42 (- (str.len pattern_VAR) 1))))
(assert (< 43 (str.len pattern_VAR)))
(assert (> (str.len pattern_VAR) 43))
(assert (> (str.len text_VAR) 43))
(assert (not (= 43 (- (str.len pattern_VAR) 1))))
(assert (< 44 (str.len pattern_VAR)))
(assert (> (str.len pattern_VAR) 44))
(assert (> (str.len text_VAR) 44))
(assert (not (= 44 (- (str.len pattern_VAR) 1))))
(assert (< 45 (str.len pattern_VAR)))
(assert (> (str.len pattern_VAR) 45))
(assert (> (str.len text_VAR) 45))
(assert (not (= 45 (- (str.len pattern_VAR) 1))))
(assert (< 46 (str.len pattern_VAR)))
(assert (> (str.len pattern_VAR) 46))
(assert (> (str.len text_VAR) 46))
(assert (not (= 46 (- (str.len pattern_VAR) 1))))
(assert (< 47 (str.len pattern_VAR)))
(assert (> (str.len pattern_VAR) 47))
(assert (> (str.len text_VAR) 47))
(assert (not (= 47 (- (str.len pattern_VAR) 1))))
(assert (< 48 (str.len pattern_VAR)))
(assert (> (str.len pattern_VAR) 48))
(assert (> (str.len text_VAR) 48))
(assert (not (= 48 (- (str.len pattern_VAR) 1))))
(assert (< 49 (str.len pattern_VAR)))
(assert (> (str.len pattern_VAR) 49))
(assert (> (str.len text_VAR) 49))
(assert (not (= 49 (- (str.len pattern_VAR) 1))))
(assert (< 50 (str.len pattern_VAR)))
(assert (> (str.len pattern_VAR) 50))
(assert (> (str.len text_VAR) 50))
(assert (not (= 50 (- (str.len pattern_VAR) 1))))
(assert (< 51 (str.len pattern_VAR)))
(assert (> (str.len pattern_VAR) 51))
(assert (> (str.len text_VAR) 51))
(assert (not (= 51 (- (str.len pattern_VAR) 1))))
(assert (< 52 (str.len pattern_VAR)))
(assert (> (str.len pattern_VAR) 52))
(assert (> (str.len text_VAR) 52))
(assert (not (= 52 (- (str.len pattern_VAR) 1))))
(assert (< 53 (str.len pattern_VAR)))
(assert (> (str.len pattern_VAR) 53))
(assert (> (str.len text_VAR) 53))
(assert (not (= 53 (- (str.len pattern_VAR) 1))))
(assert (< 54 (str.len pattern_VAR)))
(assert (> (str.len pattern_VAR) 54))
(assert (> (str.len text_VAR) 54))
(assert (not (= 54 (- (str.len pattern_VAR) 1))))
(assert (< 55 (str.len pattern_VAR)))
(assert (> (str.len pattern_VAR) 55))
(assert (> (str.len text_VAR) 55))
(assert (not (= 55 (- (str.len pattern_VAR) 1))))
(assert (< 56 (str.len pattern_VAR)))
(assert (> (str.len pattern_VAR) 56))
(assert (> (str.len text_VAR) 56))
(assert (not (= 56 (- (str.len pattern_VAR) 1))))
(assert (< 57 (str.len pattern_VAR)))
(assert (> (str.len pattern_VAR) 57))
(assert (> (str.len text_VAR) 57))
(assert (not (= 57 (- (str.len pattern_VAR) 1))))
(assert (< 58 (str.len pattern_VAR)))
(assert (> (str.len pattern_VAR) 58))
(assert (> (str.len text_VAR) 58))
(assert (not (= 58 (- (str.len pattern_VAR) 1))))
(assert (< 59 (str.len pattern_VAR)))
(assert (> (str.len pattern_VAR) 59))
(assert (> (str.len text_VAR) 59))
(assert (not (= 59 (- (str.len pattern_VAR) 1))))
(assert (< 60 (str.len pattern_VAR)))
(assert (> (str.len pattern_VAR) 60))
(assert (> (str.len text_VAR) 60))
(assert (not (= 60 (- (str.len pattern_VAR) 1))))
(assert (< 61 (str.len pattern_VAR)))
(assert (> (str.len pattern_VAR) 61))
(assert (> (str.len text_VAR) 61))
(assert (not (= 61 (- (str.len pattern_VAR) 1))))
(assert (< 62 (str.len pattern_VAR)))
(assert (> (str.len pattern_VAR) 62))
(assert (> (str.len text_VAR) 62))
(assert (not (= 62 (- (str.len pattern_VAR) 1))))
(assert (< 63 (str.len pattern_VAR)))
(assert (> (str.len pattern_VAR) 63))
(assert (> (str.len text_VAR) 63))
(assert (not (= 63 (- (str.len pattern_VAR) 1))))
(assert (< 64 (str.len pattern_VAR)))
(assert (> (str.len pattern_VAR) 64))
(assert (> (str.len text_VAR) 64))
(assert (not (= 64 (- (str.len pattern_VAR) 1))))
(assert (< 65 (str.len pattern_VAR)))
(assert (> (str.len pattern_VAR) 65))
(assert (> (str.len text_VAR) 65))
(assert (not (= 65 (- (str.len pattern_VAR) 1))))
(assert (< 66 (str.len pattern_VAR)))
(assert (> (str.len pattern_VAR) 66))
(assert (> (str.len text_VAR) 66))
(assert (not (= 66 (- (str.len pattern_VAR) 1))))
(assert (< 67 (str.len pattern_VAR)))
(assert (> (str.len pattern_VAR) 67))
(assert (> (str.len text_VAR) 67))
(assert (not (= 67 (- (str.len pattern_VAR) 1))))
(assert (< 68 (str.len pattern_VAR)))
(assert (> (str.len pattern_VAR) 68))
(assert (> (str.len text_VAR) 68))
(assert (not (= 68 (- (str.len pattern_VAR) 1))))
(assert (< 69 (str.len pattern_VAR)))
(assert (> (str.len pattern_VAR) 69))
(assert (> (str.len text_VAR) 69))
(assert (not (= 69 (- (str.len pattern_VAR) 1))))
(assert (< 70 (str.len pattern_VAR)))
(assert (> (str.len pattern_VAR) 70))
(assert (> (str.len text_VAR) 70))
(assert (not (= 70 (- (str.len pattern_VAR) 1))))
(assert (< 71 (str.len pattern_VAR)))
(assert (> (str.len pattern_VAR) 71))
(assert (> (str.len text_VAR) 71))
(assert (not (= 71 (- (str.len pattern_VAR) 1))))
(assert (< 72 (str.len pattern_VAR)))
(assert (> (str.len pattern_VAR) 72))
(assert (> (str.len text_VAR) 72))
(assert (not (= 72 (- (str.len pattern_VAR) 1))))
(assert (< 73 (str.len pattern_VAR)))
(assert (> (str.len pattern_VAR) 73))
(assert (> (str.len text_VAR) 73))
(assert (not (= 73 (- (str.len pattern_VAR) 1))))
(assert (< 74 (str.len pattern_VAR)))
(assert (> (str.len pattern_VAR) 74))
(assert (> (str.len text_VAR) 74))
(assert (not (= 74 (- (str.len pattern_VAR) 1))))
(assert (< 75 (str.len pattern_VAR)))
(assert (> (str.len pattern_VAR) 75))
(assert (> (str.len text_VAR) 75))
(assert (not (= 75 (- (str.len pattern_VAR) 1))))
(assert (< 76 (str.len pattern_VAR)))
(assert (> (str.len pattern_VAR) 76))
(assert (> (str.len text_VAR) 76))
(assert (not (= 76 (- (str.len pattern_VAR) 1))))
(assert (< 77 (str.len pattern_VAR)))
(assert (> (str.len pattern_VAR) 77))
(assert (> (str.len text_VAR) 77))
(assert (not (= 77 (- (str.len pattern_VAR) 1))))
(assert (< 78 (str.len pattern_VAR)))
(assert (> (str.len pattern_VAR) 78))
(assert (> (str.len text_VAR) 78))
(assert (not (= 78 (- (str.len pattern_VAR) 1))))
(assert (< 79 (str.len pattern_VAR)))
(assert (> (str.len pattern_VAR) 79))
(assert (> (str.len text_VAR) 79))
(assert (not (= 79 (- (str.len pattern_VAR) 1))))
(assert (< 80 (str.len pattern_VAR)))
(assert (> (str.len pattern_VAR) 80))
(assert (> (str.len text_VAR) 80))
(assert (not (= 80 (- (str.len pattern_VAR) 1))))
(assert (< 81 (str.len pattern_VAR)))
(assert (> (str.len pattern_VAR) 81))
(assert (> (str.len text_VAR) 81))
(assert (not (= 81 (- (str.len pattern_VAR) 1))))
(assert (< 82 (str.len pattern_VAR)))
(assert (> (str.len pattern_VAR) 82))
(assert (> (str.len text_VAR) 82))
(assert (not (= 82 (- (str.len pattern_VAR) 1))))
(assert (< 83 (str.len pattern_VAR)))
(assert (> (str.len pattern_VAR) 83))
(assert (> (str.len text_VAR) 83))
(assert (not (= 83 (- (str.len pattern_VAR) 1))))
(assert (< 84 (str.len pattern_VAR)))
(assert (> (str.len pattern_VAR) 84))
(assert (> (str.len text_VAR) 84))
(assert (not (= 84 (- (str.len pattern_VAR) 1))))
(assert (< 85 (str.len pattern_VAR)))
(assert (> (str.len pattern_VAR) 85))
(assert (> (str.len text_VAR) 85))
(assert (not (= 85 (- (str.len pattern_VAR) 1))))
(assert (< 86 (str.len pattern_VAR)))
(assert (> (str.len pattern_VAR) 86))
(assert (> (str.len text_VAR) 86))
(assert (not (= 86 (- (str.len pattern_VAR) 1))))
(assert (< 87 (str.len pattern_VAR)))
(assert (> (str.len pattern_VAR) 87))
(assert (> (str.len text_VAR) 87))
(assert (not (= 87 (- (str.len pattern_VAR) 1))))
(assert (< 88 (str.len pattern_VAR)))
(assert (> (str.len pattern_VAR) 88))
(assert (> (str.len text_VAR) 88))
(assert (not (= 88 (- (str.len pattern_VAR) 1))))
(assert (< 89 (str.len pattern_VAR)))
(assert (> (str.len pattern_VAR) 89))
(assert (> (str.len text_VAR) 89))
(assert (not (= 89 (- (str.len pattern_VAR) 1))))
(assert (< 90 (str.len pattern_VAR)))
(assert (> (str.len pattern_VAR) 90))
(assert (> (str.len text_VAR) 90))
(assert (not (= 90 (- (str.len pattern_VAR) 1))))
(assert (< 91 (str.len pattern_VAR)))
(assert (> (str.len pattern_VAR) 91))
(assert (> (str.len text_VAR) 91))
(assert (not (= 91 (- (str.len pattern_VAR) 1))))
(assert (< 92 (str.len pattern_VAR)))
(assert (> (str.len pattern_VAR) 92))
(assert (> (str.len text_VAR) 92))
(assert (= 92 (- (str.len pattern_VAR) 1)))
(assert (not (< 93 (str.len pattern_VAR))))
(assert (< 0 (+ (- (str.len text_VAR) (str.len pattern_VAR)) 1)))
(assert (< (+ 0 (str.len pattern_VAR)) 0))
(check-sat)
(get-value (pattern_VAR))
(get-value (text_VAR))
